40 15
0 0 10 7
10 0 5 5
15 0 4 5
19 0 9 5
10 5 26 4
28 0 12 4
10 9 11 4
0 7 8 4
36 5 3 4
8 7 2 4
21 9 8 4
39 5 1 3
29 9 8 3
37 9 2 3
29 12 11 2
0 11 10 2
0 13 6 2
10 13 6 2
6 13 3 2
16 13 3 2
19 13 7 2
28 4 3 1
31 4 6 1
29 14 4 1
